variable	x index 1
variable	y index 1
variable	z index 1

variable	xx equal 7.5*$x
variable	yy equal 7.5*$y
variable	zz equal 7.5*$z

units		lj
atom_style	atomic

lattice		fcc 0.8442
region		box block 0 ${xx} 0 ${yy} 0 ${zz}
create_box	1 box
create_atoms	1 box
mass		1 1.0

velocity	all create 2.50 911108 loop geom

pair_style	lj/cut 2.5
pair_coeff	1 1 1.0 1.0 2.5

neighbor	0.3 bin
neigh_modify	delay 0 every 20 check no

fix		1 all nvt temp 2.00 2.00 0.10

run 		10000
reset_timestep	0

thermo		10
thermo_style	custom step temp ke pe etotal
dump		1 all custom 1 dump.lj id type x y z vx vy vz
dump_modify	1 sort id

run		1000000
